DIMENSION :9
NODE_COORD_SECTION
1 38.737453384339005 8.577011532227857
2 -61.182913780133404 10.79013415176479
3 28.83775094264078 -8.073528779256861
4 26.194792449628608 -61.10666396711921
5 8.434311423243287 6.366892511078007
6 -76.31544680812117 -21.478674362441907
7 -79.64200630709203 -19.020319552701608
8 -38.638931309317634 -0.6691810302016847
9 80.80125300861255 -53.12936890632089
EOF
